# Generated by ConicBenchmarkUtilities.jl
VER
2

OBJSENSE
MIN

VAR
13 1
F 13

INT
3
5
6
7

CON
37 25
EXP 3
EXP 3
L= 1
EXP 3
EXP 3
L+ 1
EXP 3
EXP 3
L+ 1
L+ 1
L+ 1
L+ 1
L+ 1
L+ 1
L+ 1
L+ 1
L+ 1
L+ 1
L+ 1
L+ 1
L+ 1
L+ 1
L+ 1
L+ 1
L+ 1

OBJACOORD
1
8 1.0

ACOORD
51
2 0 1.0
6 0 -18.0
0 1 1.0
3 1 -1.0
7 1 1.0
10 1 -1.0
14 1 1.0
17 1 -1.0
21 1 -1.0
22 1 -1.0
23 1 1.0
27 1 1.0
28 1 -1.0
5 2 1.0
6 2 -19.2
3 3 1.0
6 3 10.0
10 3 1.0
17 3 1.0
21 3 1.0
23 3 -1.0
25 3 1.0
26 3 -1.0
6 4 -7.0
13 4 -0.8
20 4 -1.0
29 4 1.0
30 4 -1.0
6 5 5.0
22 5 2.0
24 5 -1.0
31 5 1.0
32 5 -1.0
6 6 6.0
23 6 2.0
24 6 -1.0
33 6 1.0
34 6 -1.0
6 7 8.0
20 7 -2.0
35 7 1.0
36 7 -1.0
6 8 -1.0
9 9 1.0
13 9 0.8
12 10 1.0
13 10 0.96
16 11 1.0
20 11 1.0
19 12 1.0
20 12 1.2

BCOORD
21
0 1.0
1 1.0
3 1.0
4 1.0
6 10.0
7 1.0
8 1.0
10 1.0
11 1.0
14 1.0
15 1.0
17 1.0
18 1.0
20 2.0
24 1.0
26 2.0
28 2.0
30 1.0
32 1.0
34 1.0
36 1.0
